c NeuroCodeBench 2.0 CNF formula with verdict Unsat
p cnf 34 77
-1 29 -17 -25 -7 -34 -23 0
1 31 -8 21 11 17 3 0
1 -31 -12 -20 -8 -17 -32 15 34 0
-1 -29 8 -31 -14 7 0
1 31 8 34 -23 9 10 0
1 -31 12 10 13 0
-1 -29 -8 -17 -33 -30 0
1 31 -8 -21 6 30 0
1 31 8 34 -23 -9 13 0
1 31 -8 -21 -6 -27 0
-1 29 17 18 -34 0
1 -31 -12 -20 -8 17 -33 0
-1 -29 8 -31 -14 -7 0
1 31 8 34 23 -7 13 15 0
-1 -29 -8 17 -28 20 -2 0
1 -31 -12 -20 -8 17 33 0
1 31 -8 -21 6 -30 0
1 31 8 -34 -13 -30 0
1 31 8 34 23 7 17 0
1 -31 -12 -20 -8 -17 -32 -15 14 0
1 31 8 34 23 -7 -13 -27 0
-1 29 -17 -25 7 -26 -22 0
1 -31 -12 -20 8 0
-1 -29 -8 17 -28 -20 0
-1 29 -17 -25 -7 34 -33 0
-1 29 -17 25 0
-1 29 17 -18 -11 0
-1 -29 -8 17 -28 20 2 0
1 31 8 34 23 -7 13 -15 0
-1 -29 8 31 -9 -7 -12 -26 0
-1 -29 8 31 9 -2 11 -33 0
1 -31 -12 20 0
1 31 -8 -21 -6 27 0
1 -31 12 10 -13 0
-1 -29 8 31 9 2 23 0
-1 -29 8 31 9 -2 -11 3 12 0
-1 -29 8 31 9 2 -23 0
-1 29 -17 -25 7 26 0
-1 -29 -8 -17 33 0
1 31 -8 21 11 17 -3 0
1 31 8 -34 13 0
1 31 8 34 -23 -9 -13 0
-1 -29 8 31 9 -2 11 33 0
-1 -29 -8 17 28 11 -10 0
-1 -29 8 31 -9 7 0
-1 -29 8 31 -9 -7 12 6 0
1 -31 12 -10 -22 -18 0
-1 29 17 18 34 0
1 31 -8 21 11 -17 15 0
1 -31 -12 -20 -8 -17 -32 -15 -14 0
1 -31 -12 -20 -8 -17 32 22 0
-1 -29 -8 -17 -33 30 15 0
1 31 8 34 23 -7 -13 27 0
-1 -29 8 31 -9 -7 -12 26 0
-1 29 -17 -25 -7 34 33 0
1 31 8 34 -23 9 -10 0
1 -31 -12 -20 -8 -17 32 -22 0
1 -31 -12 -20 -8 -17 -32 15 -34 23 0
1 -31 -12 -20 -8 -17 -32 15 -34 -23 0
-1 -29 -8 17 28 -11 23 0
-1 -29 8 31 -9 -7 12 -6 0
-1 -29 -8 17 28 -11 -23 0
1 31 -8 21 11 -17 -15 0
1 31 8 34 23 7 -17 30 0
-1 29 17 -18 11 0
-1 -29 -8 -17 -33 30 -15 0
-1 -29 8 -31 14 0
1 -31 12 -10 22 0
1 31 8 -34 -13 30 0
1 -31 12 -10 -22 18 0
-1 -29 -8 17 28 11 10 0
-1 -29 8 31 9 -2 -11 3 -12 0
-1 29 -17 -25 -7 -34 23 0
1 31 -8 21 -11 0
1 31 8 34 23 7 -17 -30 0
-1 29 -17 -25 7 -26 22 0
-1 -29 8 31 9 -2 -11 -3 0
